p cnf 108 841
-37 -38 0
-37 -39 0
-37 -40 0
-37 -41 0
-37 -42 0
-37 -43 0
-37 -44 0
-37 -45 0
-38 -39 0
-38 -40 0
-38 -41 0
-38 -42 0
-38 -43 0
-38 -44 0
-38 -45 0
-39 -40 0
-39 -41 0
-39 -42 0
-39 -43 0
-39 -44 0
-39 -45 0
-40 -41 0
-40 -42 0
-40 -43 0
-40 -44 0
-40 -45 0
-41 -42 0
-41 -43 0
-41 -44 0
-41 -45 0
-42 -43 0
-42 -44 0
-42 -45 0
-43 -44 0
-43 -45 0
-44 -45 0
37 38 39 40 41 42 43 44 45 0
-46 -47 0
-46 -48 0
-46 -49 0
-46 -50 0
-46 -51 0
-46 -52 0
-46 -53 0
-46 -54 0
-47 -48 0
-47 -49 0
-47 -50 0
-47 -51 0
-47 -52 0
-47 -53 0
-47 -54 0
-48 -49 0
-48 -50 0
-48 -51 0
-48 -52 0
-48 -53 0
-48 -54 0
-49 -50 0
-49 -51 0
-49 -52 0
-49 -53 0
-49 -54 0
-50 -51 0
-50 -52 0
-50 -53 0
-50 -54 0
-51 -52 0
-51 -53 0
-51 -54 0
-52 -53 0
-52 -54 0
-53 -54 0
46 47 48 49 50 51 52 53 54 0
-55 -56 0
-55 -57 0
-55 -58 0
-55 -59 0
-55 -60 0
-55 -61 0
-55 -62 0
-55 -63 0
-56 -57 0
-56 -58 0
-56 -59 0
-56 -60 0
-56 -61 0
-56 -62 0
-56 -63 0
-57 -58 0
-57 -59 0
-57 -60 0
-57 -61 0
-57 -62 0
-57 -63 0
-58 -59 0
-58 -60 0
-58 -61 0
-58 -62 0
-58 -63 0
-59 -60 0
-59 -61 0
-59 -62 0
-59 -63 0
-60 -61 0
-60 -62 0
-60 -63 0
-61 -62 0
-61 -63 0
-62 -63 0
55 56 57 58 59 60 61 62 63 0
-64 -65 0
-64 -66 0
-64 -67 0
-64 -68 0
-64 -69 0
-64 -70 0
-64 -71 0
-64 -72 0
-65 -66 0
-65 -67 0
-65 -68 0
-65 -69 0
-65 -70 0
-65 -71 0
-65 -72 0
-66 -67 0
-66 -68 0
-66 -69 0
-66 -70 0
-66 -71 0
-66 -72 0
-67 -68 0
-67 -69 0
-67 -70 0
-67 -71 0
-67 -72 0
-68 -69 0
-68 -70 0
-68 -71 0
-68 -72 0
-69 -70 0
-69 -71 0
-69 -72 0
-70 -71 0
-70 -72 0
-71 -72 0
64 65 66 67 68 69 70 71 72 0
-37 -46 0
-37 -55 0
-37 -64 0
-46 -55 0
-46 -64 0
-55 -64 0
-38 -47 0
-38 -56 0
-38 -65 0
-47 -56 0
-47 -65 0
-56 -65 0
-39 -48 0
-39 -57 0
-39 -66 0
-48 -57 0
-48 -66 0
-57 -66 0
-40 -49 0
-40 -58 0
-40 -67 0
-49 -58 0
-49 -67 0
-58 -67 0
-41 -50 0
-41 -59 0
-41 -68 0
-50 -59 0
-50 -68 0
-59 -68 0
-42 -51 0
-42 -60 0
-42 -69 0
-51 -60 0
-51 -69 0
-60 -69 0
-43 -52 0
-43 -61 0
-43 -70 0
-52 -61 0
-52 -70 0
-61 -70 0
-44 -53 0
-44 -62 0
-44 -71 0
-53 -62 0
-53 -71 0
-62 -71 0
-45 -54 0
-45 -63 0
-45 -72 0
-54 -63 0
-54 -72 0
-63 -72 0
1 -37 -47 0
1 -37 -56 0
1 -37 -65 0
1 -46 -38 0
1 -46 -56 0
1 -46 -65 0
1 -55 -38 0
1 -55 -47 0
1 -55 -65 0
1 -64 -38 0
1 -64 -47 0
1 -64 -56 0
2 -37 -48 0
2 -37 -57 0
2 -37 -66 0
2 -46 -39 0
2 -46 -57 0
2 -46 -66 0
2 -55 -39 0
2 -55 -48 0
2 -55 -66 0
2 -64 -39 0
2 -64 -48 0
2 -64 -57 0
3 -37 -49 0
3 -37 -58 0
3 -37 -67 0
3 -46 -40 0
3 -46 -58 0
3 -46 -67 0
3 -55 -40 0
3 -55 -49 0
3 -55 -67 0
3 -64 -40 0
3 -64 -49 0
3 -64 -58 0
4 -37 -50 0
4 -37 -59 0
4 -37 -68 0
4 -46 -41 0
4 -46 -59 0
4 -46 -68 0
4 -55 -41 0
4 -55 -50 0
4 -55 -68 0
4 -64 -41 0
4 -64 -50 0
4 -64 -59 0
5 -37 -51 0
5 -37 -60 0
5 -37 -69 0
5 -46 -42 0
5 -46 -60 0
5 -46 -69 0
5 -55 -42 0
5 -55 -51 0
5 -55 -69 0
5 -64 -42 0
5 -64 -51 0
5 -64 -60 0
6 -37 -52 0
6 -37 -61 0
6 -37 -70 0
6 -46 -43 0
6 -46 -61 0
6 -46 -70 0
6 -55 -43 0
6 -55 -52 0
6 -55 -70 0
6 -64 -43 0
6 -64 -52 0
6 -64 -61 0
7 -37 -53 0
7 -37 -62 0
7 -37 -71 0
7 -46 -44 0
7 -46 -62 0
7 -46 -71 0
7 -55 -44 0
7 -55 -53 0
7 -55 -71 0
7 -64 -44 0
7 -64 -53 0
7 -64 -62 0
8 -37 -54 0
8 -37 -63 0
8 -37 -72 0
8 -46 -45 0
8 -46 -63 0
8 -46 -72 0
8 -55 -45 0
8 -55 -54 0
8 -55 -72 0
8 -64 -45 0
8 -64 -54 0
8 -64 -63 0
9 -38 -48 0
9 -38 -57 0
9 -38 -66 0
9 -47 -39 0
9 -47 -57 0
9 -47 -66 0
9 -56 -39 0
9 -56 -48 0
9 -56 -66 0
9 -65 -39 0
9 -65 -48 0
9 -65 -57 0
10 -38 -49 0
10 -38 -58 0
10 -38 -67 0
10 -47 -40 0
10 -47 -58 0
10 -47 -67 0
10 -56 -40 0
10 -56 -49 0
10 -56 -67 0
10 -65 -40 0
10 -65 -49 0
10 -65 -58 0
11 -38 -50 0
11 -38 -59 0
11 -38 -68 0
11 -47 -41 0
11 -47 -59 0
11 -47 -68 0
11 -56 -41 0
11 -56 -50 0
11 -56 -68 0
11 -65 -41 0
11 -65 -50 0
11 -65 -59 0
12 -38 -51 0
12 -38 -60 0
12 -38 -69 0
12 -47 -42 0
12 -47 -60 0
12 -47 -69 0
12 -56 -42 0
12 -56 -51 0
12 -56 -69 0
12 -65 -42 0
12 -65 -51 0
12 -65 -60 0
13 -38 -52 0
13 -38 -61 0
13 -38 -70 0
13 -47 -43 0
13 -47 -61 0
13 -47 -70 0
13 -56 -43 0
13 -56 -52 0
13 -56 -70 0
13 -65 -43 0
13 -65 -52 0
13 -65 -61 0
14 -38 -53 0
14 -38 -62 0
14 -38 -71 0
14 -47 -44 0
14 -47 -62 0
14 -47 -71 0
14 -56 -44 0
14 -56 -53 0
14 -56 -71 0
14 -65 -44 0
14 -65 -53 0
14 -65 -62 0
15 -38 -54 0
15 -38 -63 0
15 -38 -72 0
15 -47 -45 0
15 -47 -63 0
15 -47 -72 0
15 -56 -45 0
15 -56 -54 0
15 -56 -72 0
15 -65 -45 0
15 -65 -54 0
15 -65 -63 0
16 -39 -49 0
16 -39 -58 0
16 -39 -67 0
16 -48 -40 0
16 -48 -58 0
16 -48 -67 0
16 -57 -40 0
16 -57 -49 0
16 -57 -67 0
16 -66 -40 0
16 -66 -49 0
16 -66 -58 0
17 -39 -50 0
17 -39 -59 0
17 -39 -68 0
17 -48 -41 0
17 -48 -59 0
17 -48 -68 0
17 -57 -41 0
17 -57 -50 0
17 -57 -68 0
17 -66 -41 0
17 -66 -50 0
17 -66 -59 0
18 -39 -51 0
18 -39 -60 0
18 -39 -69 0
18 -48 -42 0
18 -48 -60 0
18 -48 -69 0
18 -57 -42 0
18 -57 -51 0
18 -57 -69 0
18 -66 -42 0
18 -66 -51 0
18 -66 -60 0
19 -39 -52 0
19 -39 -61 0
19 -39 -70 0
19 -48 -43 0
19 -48 -61 0
19 -48 -70 0
19 -57 -43 0
19 -57 -52 0
19 -57 -70 0
19 -66 -43 0
19 -66 -52 0
19 -66 -61 0
20 -39 -53 0
20 -39 -62 0
20 -39 -71 0
20 -48 -44 0
20 -48 -62 0
20 -48 -71 0
20 -57 -44 0
20 -57 -53 0
20 -57 -71 0
20 -66 -44 0
20 -66 -53 0
20 -66 -62 0
21 -39 -54 0
21 -39 -63 0
21 -39 -72 0
21 -48 -45 0
21 -48 -63 0
21 -48 -72 0
21 -57 -45 0
21 -57 -54 0
21 -57 -72 0
21 -66 -45 0
21 -66 -54 0
21 -66 -63 0
22 -40 -50 0
22 -40 -59 0
22 -40 -68 0
22 -49 -41 0
22 -49 -59 0
22 -49 -68 0
22 -58 -41 0
22 -58 -50 0
22 -58 -68 0
22 -67 -41 0
22 -67 -50 0
22 -67 -59 0
23 -40 -51 0
23 -40 -60 0
23 -40 -69 0
23 -49 -42 0
23 -49 -60 0
23 -49 -69 0
23 -58 -42 0
23 -58 -51 0
23 -58 -69 0
23 -67 -42 0
23 -67 -51 0
23 -67 -60 0
24 -40 -52 0
24 -40 -61 0
24 -40 -70 0
24 -49 -43 0
24 -49 -61 0
24 -49 -70 0
24 -58 -43 0
24 -58 -52 0
24 -58 -70 0
24 -67 -43 0
24 -67 -52 0
24 -67 -61 0
25 -40 -53 0
25 -40 -62 0
25 -40 -71 0
25 -49 -44 0
25 -49 -62 0
25 -49 -71 0
25 -58 -44 0
25 -58 -53 0
25 -58 -71 0
25 -67 -44 0
25 -67 -53 0
25 -67 -62 0
26 -40 -54 0
26 -40 -63 0
26 -40 -72 0
26 -49 -45 0
26 -49 -63 0
26 -49 -72 0
26 -58 -45 0
26 -58 -54 0
26 -58 -72 0
26 -67 -45 0
26 -67 -54 0
26 -67 -63 0
27 -41 -51 0
27 -41 -60 0
27 -41 -69 0
27 -50 -42 0
27 -50 -60 0
27 -50 -69 0
27 -59 -42 0
27 -59 -51 0
27 -59 -69 0
27 -68 -42 0
27 -68 -51 0
27 -68 -60 0
28 -41 -52 0
28 -41 -61 0
28 -41 -70 0
28 -50 -43 0
28 -50 -61 0
28 -50 -70 0
28 -59 -43 0
28 -59 -52 0
28 -59 -70 0
28 -68 -43 0
28 -68 -52 0
28 -68 -61 0
29 -41 -53 0
29 -41 -62 0
29 -41 -71 0
29 -50 -44 0
29 -50 -62 0
29 -50 -71 0
29 -59 -44 0
29 -59 -53 0
29 -59 -71 0
29 -68 -44 0
29 -68 -53 0
29 -68 -62 0
30 -41 -54 0
30 -41 -63 0
30 -41 -72 0
30 -50 -45 0
30 -50 -63 0
30 -50 -72 0
30 -59 -45 0
30 -59 -54 0
30 -59 -72 0
30 -68 -45 0
30 -68 -54 0
30 -68 -63 0
31 -42 -52 0
31 -42 -61 0
31 -42 -70 0
31 -51 -43 0
31 -51 -61 0
31 -51 -70 0
31 -60 -43 0
31 -60 -52 0
31 -60 -70 0
31 -69 -43 0
31 -69 -52 0
31 -69 -61 0
32 -42 -53 0
32 -42 -62 0
32 -42 -71 0
32 -51 -44 0
32 -51 -62 0
32 -51 -71 0
32 -60 -44 0
32 -60 -53 0
32 -60 -71 0
32 -69 -44 0
32 -69 -53 0
32 -69 -62 0
33 -42 -54 0
33 -42 -63 0
33 -42 -72 0
33 -51 -45 0
33 -51 -63 0
33 -51 -72 0
33 -60 -45 0
33 -60 -54 0
33 -60 -72 0
33 -69 -45 0
33 -69 -54 0
33 -69 -63 0
34 -43 -53 0
34 -43 -62 0
34 -43 -71 0
34 -52 -44 0
34 -52 -62 0
34 -52 -71 0
34 -61 -44 0
34 -61 -53 0
34 -61 -71 0
34 -70 -44 0
34 -70 -53 0
34 -70 -62 0
35 -43 -54 0
35 -43 -63 0
35 -43 -72 0
35 -52 -45 0
35 -52 -63 0
35 -52 -72 0
35 -61 -45 0
35 -61 -54 0
35 -61 -72 0
35 -70 -45 0
35 -70 -54 0
35 -70 -63 0
36 -44 -54 0
36 -44 -63 0
36 -44 -72 0
36 -53 -45 0
36 -53 -63 0
36 -53 -72 0
36 -62 -45 0
36 -62 -54 0
36 -62 -72 0
36 -71 -45 0
36 -71 -54 0
36 -71 -63 0
-73 -74 0
-73 -75 0
-73 -76 0
-74 -75 0
-74 -76 0
-75 -76 0
73 74 75 76 0
-77 -78 0
-77 -79 0
-77 -80 0
-78 -79 0
-78 -80 0
-79 -80 0
77 78 79 80 0
-81 -82 0
-81 -83 0
-81 -84 0
-82 -83 0
-82 -84 0
-83 -84 0
81 82 83 84 0
-85 -86 0
-85 -87 0
-85 -88 0
-86 -87 0
-86 -88 0
-87 -88 0
85 86 87 88 0
-89 -90 0
-89 -91 0
-89 -92 0
-90 -91 0
-90 -92 0
-91 -92 0
89 90 91 92 0
-93 -94 0
-93 -95 0
-93 -96 0
-94 -95 0
-94 -96 0
-95 -96 0
93 94 95 96 0
-97 -98 0
-97 -99 0
-97 -100 0
-98 -99 0
-98 -100 0
-99 -100 0
97 98 99 100 0
-101 -102 0
-101 -103 0
-101 -104 0
-102 -103 0
-102 -104 0
-103 -104 0
101 102 103 104 0
-105 -106 0
-105 -107 0
-105 -108 0
-106 -107 0
-106 -108 0
-107 -108 0
105 106 107 108 0
-1 -73 -77 0
-1 -74 -78 0
-1 -75 -79 0
-1 -76 -80 0
-2 -73 -81 0
-2 -74 -82 0
-2 -75 -83 0
-2 -76 -84 0
-3 -73 -85 0
-3 -74 -86 0
-3 -75 -87 0
-3 -76 -88 0
-4 -73 -89 0
-4 -74 -90 0
-4 -75 -91 0
-4 -76 -92 0
-5 -73 -93 0
-5 -74 -94 0
-5 -75 -95 0
-5 -76 -96 0
-6 -73 -97 0
-6 -74 -98 0
-6 -75 -99 0
-6 -76 -100 0
-7 -73 -101 0
-7 -74 -102 0
-7 -75 -103 0
-7 -76 -104 0
-8 -73 -105 0
-8 -74 -106 0
-8 -75 -107 0
-8 -76 -108 0
-9 -77 -81 0
-9 -78 -82 0
-9 -79 -83 0
-9 -80 -84 0
-10 -77 -85 0
-10 -78 -86 0
-10 -79 -87 0
-10 -80 -88 0
-11 -77 -89 0
-11 -78 -90 0
-11 -79 -91 0
-11 -80 -92 0
-12 -77 -93 0
-12 -78 -94 0
-12 -79 -95 0
-12 -80 -96 0
-13 -77 -97 0
-13 -78 -98 0
-13 -79 -99 0
-13 -80 -100 0
-14 -77 -101 0
-14 -78 -102 0
-14 -79 -103 0
-14 -80 -104 0
-15 -77 -105 0
-15 -78 -106 0
-15 -79 -107 0
-15 -80 -108 0
-16 -81 -85 0
-16 -82 -86 0
-16 -83 -87 0
-16 -84 -88 0
-17 -81 -89 0
-17 -82 -90 0
-17 -83 -91 0
-17 -84 -92 0
-18 -81 -93 0
-18 -82 -94 0
-18 -83 -95 0
-18 -84 -96 0
-19 -81 -97 0
-19 -82 -98 0
-19 -83 -99 0
-19 -84 -100 0
-20 -81 -101 0
-20 -82 -102 0
-20 -83 -103 0
-20 -84 -104 0
-21 -81 -105 0
-21 -82 -106 0
-21 -83 -107 0
-21 -84 -108 0
-22 -85 -89 0
-22 -86 -90 0
-22 -87 -91 0
-22 -88 -92 0
-23 -85 -93 0
-23 -86 -94 0
-23 -87 -95 0
-23 -88 -96 0
-24 -85 -97 0
-24 -86 -98 0
-24 -87 -99 0
-24 -88 -100 0
-25 -85 -101 0
-25 -86 -102 0
-25 -87 -103 0
-25 -88 -104 0
-26 -85 -105 0
-26 -86 -106 0
-26 -87 -107 0
-26 -88 -108 0
-27 -89 -93 0
-27 -90 -94 0
-27 -91 -95 0
-27 -92 -96 0
-28 -89 -97 0
-28 -90 -98 0
-28 -91 -99 0
-28 -92 -100 0
-29 -89 -101 0
-29 -90 -102 0
-29 -91 -103 0
-29 -92 -104 0
-30 -89 -105 0
-30 -90 -106 0
-30 -91 -107 0
-30 -92 -108 0
-31 -93 -97 0
-31 -94 -98 0
-31 -95 -99 0
-31 -96 -100 0
-32 -93 -101 0
-32 -94 -102 0
-32 -95 -103 0
-32 -96 -104 0
-33 -93 -105 0
-33 -94 -106 0
-33 -95 -107 0
-33 -96 -108 0
-34 -97 -101 0
-34 -98 -102 0
-34 -99 -103 0
-34 -100 -104 0
-35 -97 -105 0
-35 -98 -106 0
-35 -99 -107 0
-35 -100 -108 0
-36 -101 -105 0
-36 -102 -106 0
-36 -103 -107 0
-36 -104 -108 0